c Random Network
p min 10 20
n 1 1
n 10 -1
c Transformed from a max-flow problem.
a 	 6	9	0	36	0
a 	 4	10	0	35	0
a 	 8	1	0	9	0
a 	 10	6	0	50	0
a 	 1	2	0	14	0
a 	 10	1	0	40	0
a 	 1	7	0	18	0
a 	 1	9	0	36	0
a 	 2	6	0	36	0
a 	 1	6	0	11	0
a 	 2	3	0	47	0
a 	 6	2	0	17	0
a 	 4	2	0	30	0
a 	 10	3	0	47	0
a 	 3	10	0	23	0
a 	 2	10	0	33	0
a 	 4	1	0	32	0
a 	 4	8	0	45	0
a 	 1	8	0	47	0
a 	 9	6	0	6	0
